mixintcount/benchmarks/random_v2l/6_6_28.in
24 8
#	x1	x2	x3	x4	x5	x6;		0 = Real; 1 = Integer
	1	1	1	1	1	1
1	7	4	3	0	10	1	24
1	-3	6	-5	7	-8	-3	-22
1	4	7	-2	-8	9	6	-3
1	-9	2	7	3	9	-4	5
1	-10	-9	-6	8	5	5	-25
1	5	-5	1	10	9	7	24
1	9	-9	2	1	6	10	9
1	5	6	-5	4	-5	10	12
1	-8	-5	2	-8	-5	4	-19
1	8	-4	-5	0	-1	6	23
1	-5	0	-6	-6	1	4	-25
1	-3	4	-3	10	-1	0	-4
1	1	0	0	0	0	0	28
1	-1	0	0	0	0	0	28
1	0	1	0	0	0	0	28
1	0	-1	0	0	0	0	28
1	0	0	1	0	0	0	28
1	0	0	-1	0	0	0	28
1	0	0	0	1	0	0	28
1	0	0	0	-1	0	0	28
1	0	0	0	0	1	0	28
1	0	0	0	0	-1	0	28
1	0	0	0	0	0	1	28
1	0	0	0	0	0	-1	28
